benchmark/version5/SLIA/0/9.out
2 {f:str.substr(Param0,0,str.len(str.substr(Param0,3,str.len(Param0))))}
0.0073400000
